WARNING: for repeatability, setting FPU to use double precision
============================[ Problem Statistics ]=============================
|                                                                             |
|  Number of variables:            50                                         |
|  Number of clauses:             218                                         |
|  Parse time:                   0.00 s                                       |
|                                                                             |
============================[ Search Statistics ]==============================
| Conflicts |          ORIGINAL         |          LEARNT          | Progress |
|           |    Vars  Clauses Literals |    Limit  Clauses Lit/Cl |          |
===============================================================================
===============================================================================
restarts              : 1
conflicts             : 15             (10933 /sec)
decisions             : 29             (0.00 % random) (21137 /sec)
propagations          : 238            (173469 /sec)
conflict literals     : 73             (7.59 % deleted)
Memory used           : 20.00 MB
CPU time              : 0.001372 s

SATISFIABLE
